N = 38;
MinK = 5;
Capacity = 100;

X = array1d(0..38, [37, 77, 97, 39, 45, 85, 7, 16, 21, 21, 12, 92, 92, 10, 19, 86, 106, 48, 8, 14, 14, 98, 106, 98, 98, 80, 82, 52, 42, 25, 104, 44, 78, 98, 16, 46, 44, 100, 52]);
Y = array1d(0..38, [21, 57, 79, 33, 47, 23, 1, 6, 13, 7, 6, 24, 32, 8, 15, 24, 84, 48, 2, 2, 2, 82, 80, 86, 82, 62, 62, 52, 42, 11, 86, 38, 64, 80, 4, 48, 42, 82, 54]);

Demands = [14, 16, 18, 20, 1, 12, 13, 18, 9, 15, 8, 10, 7, 18, 14, 1, 15, 7, 25, 2, 3, 4, 16, 15, 23, 11, 21, 10, 12, 9, 7, 8, 4, 23, 8, 6, 2, 15];
